unsat
(error "line 1186 column 17: model is not available")
(error "line 1187 column 17: model is not available")
(error "line 1188 column 18: model is not available")
(error "line 1189 column 18: model is not available")
(error "line 1190 column 18: model is not available")
(error "line 1191 column 18: model is not available")
(error "line 1192 column 18: model is not available")
(error "line 1193 column 18: model is not available")
(error "line 1194 column 18: model is not available")
(error "line 1195 column 18: model is not available")
(error "line 1196 column 18: model is not available")
(error "line 1197 column 18: model is not available")
(error "line 1198 column 17: model is not available")
(error "line 1199 column 18: model is not available")
(error "line 1200 column 18: model is not available")
(error "line 1201 column 18: model is not available")
(error "line 1202 column 18: model is not available")
(error "line 1203 column 18: model is not available")
(error "line 1204 column 18: model is not available")
(error "line 1205 column 18: model is not available")
(error "line 1206 column 18: model is not available")
(error "line 1207 column 18: model is not available")
(error "line 1208 column 18: model is not available")
(error "line 1209 column 17: model is not available")
(error "line 1210 column 18: model is not available")
(error "line 1211 column 18: model is not available")
(error "line 1212 column 18: model is not available")
(error "line 1213 column 18: model is not available")
(error "line 1214 column 18: model is not available")
(error "line 1215 column 18: model is not available")
(error "line 1216 column 18: model is not available")
(error "line 1217 column 18: model is not available")
(error "line 1218 column 18: model is not available")
(error "line 1219 column 18: model is not available")
(error "line 1220 column 17: model is not available")
(error "line 1221 column 18: model is not available")
(error "line 1222 column 18: model is not available")
(error "line 1223 column 18: model is not available")
(error "line 1224 column 18: model is not available")
(error "line 1225 column 18: model is not available")
(error "line 1226 column 18: model is not available")
(error "line 1227 column 18: model is not available")
(error "line 1228 column 18: model is not available")
(error "line 1229 column 18: model is not available")
(error "line 1230 column 18: model is not available")
(error "line 1231 column 17: model is not available")
(error "line 1232 column 18: model is not available")
(error "line 1233 column 18: model is not available")
(error "line 1234 column 18: model is not available")
(error "line 1235 column 18: model is not available")
(error "line 1236 column 18: model is not available")
(error "line 1237 column 18: model is not available")
(error "line 1238 column 18: model is not available")
(error "line 1239 column 18: model is not available")
(error "line 1240 column 18: model is not available")
(error "line 1241 column 18: model is not available")
(error "line 1242 column 17: model is not available")
(error "line 1243 column 18: model is not available")
(error "line 1244 column 18: model is not available")
(error "line 1245 column 18: model is not available")
(error "line 1246 column 18: model is not available")
(error "line 1247 column 18: model is not available")
(error "line 1248 column 18: model is not available")
(error "line 1249 column 18: model is not available")
(error "line 1250 column 18: model is not available")
(error "line 1251 column 18: model is not available")
(error "line 1252 column 18: model is not available")
(error "line 1253 column 17: model is not available")
(error "line 1254 column 18: model is not available")
(error "line 1255 column 18: model is not available")
(error "line 1256 column 18: model is not available")
(error "line 1257 column 18: model is not available")
(error "line 1258 column 18: model is not available")
(error "line 1259 column 17: model is not available")
(error "line 1260 column 17: model is not available")
(error "line 1261 column 38: model is not available")
(error "line 1262 column 45: model is not available")
(error "line 1263 column 38: model is not available")
(error "line 1264 column 45: model is not available")
(error "line 1265 column 46: model is not available")
(error "line 1266 column 53: model is not available")
(error "line 1267 column 40: model is not available")
(error "line 1268 column 47: model is not available")
(error "line 1269 column 38: model is not available")
(error "line 1270 column 45: model is not available")
(error "line 1271 column 38: model is not available")
(error "line 1272 column 45: model is not available")
(error "line 1273 column 41: model is not available")
(error "line 1274 column 48: model is not available")
(error "line 1275 column 41: model is not available")
(error "line 1276 column 48: model is not available")
(error "line 1277 column 41: model is not available")
(error "line 1278 column 48: model is not available")
(error "line 1279 column 41: model is not available")
(error "line 1280 column 41: model is not available")
(error "line 1281 column 48: model is not available")
(error "line 1282 column 37: model is not available")
(error "line 1283 column 44: model is not available")
(error "line 1284 column 42: model is not available")
(error "line 1285 column 42: model is not available")
(error "line 1286 column 42: model is not available")
(error "line 1287 column 38: model is not available")
(error "line 1288 column 38: model is not available")
(error "line 1289 column 38: model is not available")
(error "line 1290 column 38: model is not available")
(error "line 1291 column 38: model is not available")
(error "line 1292 column 41: model is not available")
(error "line 1293 column 48: model is not available")
(error "line 1294 column 41: model is not available")
(error "line 1295 column 48: model is not available")
(error "line 1296 column 41: model is not available")
(error "line 1297 column 48: model is not available")
(error "line 1298 column 41: model is not available")
(error "line 1299 column 48: model is not available")
(error "line 1300 column 41: model is not available")
(error "line 1301 column 48: model is not available")
(error "line 1302 column 53: model is not available")
(error "line 1303 column 53: model is not available")
(error "line 1304 column 38: model is not available")
(error "line 1305 column 38: model is not available")
(error "line 1306 column 38: model is not available")
(error "line 1307 column 38: model is not available")
(error "line 1308 column 38: model is not available")
(error "line 1309 column 38: model is not available")
(error "line 1310 column 38: model is not available")
(error "line 1311 column 38: model is not available")
(error "line 1312 column 18: model is not available")
(error "line 1313 column 25: model is not available")
(error "line 1314 column 19: model is not available")
(error "line 1315 column 26: model is not available")
(error "line 1316 column 19: model is not available")
(error "line 1317 column 26: model is not available")
(error "line 1318 column 19: model is not available")
(error "line 1319 column 19: model is not available")
(error "line 1320 column 26: model is not available")
(error "line 1321 column 18: model is not available")
(error "line 1322 column 25: model is not available")
(error "line 1323 column 18: model is not available")
(error "line 1324 column 18: model is not available")
(error "line 1325 column 25: model is not available")
(error "line 1326 column 18: model is not available")
(error "line 1327 column 25: model is not available")
(error "line 1328 column 18: model is not available")
(error "line 1329 column 18: model is not available")
(error "line 1330 column 25: model is not available")
(error "line 1331 column 18: model is not available")
(error "line 1332 column 25: model is not available")
(error "line 1333 column 18: model is not available")
(error "line 1334 column 36: model is not available")
(error "line 1335 column 36: model is not available")
(error "line 1336 column 29: model is not available")
(error "line 1337 column 31: model is not available")
(error "line 1338 column 38: model is not available")
(error "line 1339 column 31: model is not available")
(error "line 1340 column 38: model is not available")
(error "line 1341 column 31: model is not available")
(error "line 1342 column 38: model is not available")
(error "line 1343 column 52: model is not available")
(error "line 1344 column 51: model is not available")
(error "line 1345 column 50: model is not available")
(error "line 1346 column 50: model is not available")
(error "line 1347 column 50: model is not available")
(error "line 1348 column 50: model is not available")
(error "line 1349 column 51: model is not available")
(error "line 1350 column 51: model is not available")
(error "line 1351 column 51: model is not available")
(error "line 1352 column 50: model is not available")
(error "line 1353 column 50: model is not available")
(error "line 1354 column 51: model is not available")
(error "line 1355 column 51: model is not available")
(error "line 1356 column 51: model is not available")
(error "line 1357 column 51: model is not available")
(error "line 1358 column 51: model is not available")
(error "line 1359 column 51: model is not available")
(error "line 1360 column 51: model is not available")
(error "line 1361 column 50: model is not available")
(error "line 1362 column 50: model is not available")
(error "line 1363 column 55: model is not available")
(error "line 1364 column 55: model is not available")
(error "line 1365 column 55: model is not available")
(error "line 1366 column 55: model is not available")
(error "line 1367 column 55: model is not available")
(error "line 1368 column 55: model is not available")
(error "line 1369 column 55: model is not available")
(error "line 1370 column 55: model is not available")
(error "line 1371 column 55: model is not available")
(error "line 1372 column 55: model is not available")
(error "line 1373 column 55: model is not available")
(error "line 1374 column 36: model is not available")
(error "line 1375 column 36: model is not available")
(error "line 1376 column 36: model is not available")
(error "line 1377 column 36: model is not available")
(error "line 1378 column 46: model is not available")
(error "line 1379 column 46: model is not available")
(error "line 1380 column 46: model is not available")
(error "line 1381 column 46: model is not available")
(error "line 1382 column 54: model is not available")
(error "line 1383 column 54: model is not available")
(error "line 1384 column 54: model is not available")
(error "line 1385 column 54: model is not available")
(error "line 1386 column 54: model is not available")
(error "line 1387 column 54: model is not available")
(error "line 1388 column 40: model is not available")
(error "line 1389 column 40: model is not available")
(error "line 1390 column 40: model is not available")
(error "line 1391 column 40: model is not available")
(error "line 1392 column 41: model is not available")
(error "line 1393 column 41: model is not available")
(error "line 1394 column 41: model is not available")
(error "line 1395 column 41: model is not available")
(error "line 1396 column 50: model is not available")
(error "line 1397 column 50: model is not available")
(error "line 1398 column 50: model is not available")
(error "line 1399 column 50: model is not available")
(error "line 1400 column 43: model is not available")
(error "line 1401 column 43: model is not available")
(error "line 1402 column 43: model is not available")
(error "line 1403 column 43: model is not available")
(error "line 1404 column 30: model is not available")
(error "line 1405 column 30: model is not available")
(error "line 1406 column 36: model is not available")
(error "line 1407 column 36: model is not available")
(error "line 1408 column 36: model is not available")
(error "line 1409 column 36: model is not available")
(error "line 1410 column 31: model is not available")
(error "line 1411 column 31: model is not available")
(error "line 1412 column 31: model is not available")
(error "line 1413 column 31: model is not available")
(error "line 1414 column 31: model is not available")
(error "line 1415 column 31: model is not available")
(error "line 1416 column 31: model is not available")
(error "line 1417 column 31: model is not available")
(error "line 1418 column 31: model is not available")
(error "line 1419 column 31: model is not available")
(error "line 1420 column 31: model is not available")
(error "line 1421 column 31: model is not available")
(error "line 1422 column 31: model is not available")
(error "line 1423 column 31: model is not available")
(error "line 1424 column 31: model is not available")
(error "line 1425 column 31: model is not available")
(error "line 1426 column 31: model is not available")
(error "line 1427 column 31: model is not available")
(error "line 1428 column 30: model is not available")
(error "line 1429 column 30: model is not available")
(error "line 1431 column 10: model is not available")
(:max-memory   2.83
 :memory       2.83
 :mk-bool-var  1
 :num-allocs   216004
 :rlimit-count 21498
 :time         0.01
 :total-time   0.01)

real	0m0.015s
user	0m0.012s
sys	0m0.003s
State: RE Run_time: 0.017511844635009766